--- Job homework 6 MIP (1).gms Start 10/24/24 15:57:22 47.6.0 c2de9d6d WEX-WEI x86 64bit/MS Windows
--- Applying:
    C:\GAMS\47\gmsprmNT.txt
--- GAMS Parameters defined
    Input "C:\Users\fugal\OneDrive\Documents\GitHub\CEE-6410-Fugal\homework 6 MIP (1).gms"
    PageSize 0
    ScrDir C:\Users\fugal\OneDrive\Documents\GitHub\CEE-6410-Fugal\225a\
    SysDir C:\GAMS\47\
    LogOption 3
    ErrMsg 1
    ErrorLog 99
    IDE 1
    LstTitleLeftAligned 1
Licensee: CEE 6410 Water Resources Systems Analysis      G240923|0002AO-GEN
          Utah State University, Utah Water Research Laboratory     DCE3763
          C:\Users\fugal\OneDrive\Documents\GAMS\gamslice.txt
          License Admin: David Rosenberg, david.rosenberg@usu.edu          
          Other time limited license
          The evaluation period of the license will expire on Dec 22, 2024
Processor information: 1 socket(s), 10 core(s), and 12 thread(s) available
GAMS 47.6.0   Copyright (C) 1987-2024 GAMS Development. All rights reserved
--- Starting compilation
--- homework 6 MIP (1).gms(77) 3 Mb
--- Starting execution: elapsed 0:00:00.007
--- Generating MIP model reservoir_management
--- homework 6 MIP (1).gms(77) 4 Mb
---   12 rows  14 columns  46 non-zeroes
---   3 discrete-columns
--- Range statistics (absolute non-zero finite values)
--- RHS       [min, max] : [ 1.000E+00, 6.000E+02] - Zero values observed as well
--- Bound     [min, max] : [ 1.000E+00, 1.000E+00] - Zero values observed as well
--- Matrix    [min, max] : [ 1.000E+00, 1.000E+04]
--- Executing CPLEX (Solvelink=2): elapsed 0:00:00.018

IBM ILOG CPLEX   47.6.0 c2de9d6d Sep 12, 2024          WEI x86 64bit/MS Window

*** This solver runs with a community license.
--- GMO setup time: 0.00s
--- GMO memory 0.50 Mb (peak 0.50 Mb)
--- Dictionary memory 0.00 Mb
--- Cplex 22.1.1.0 link memory 0.00 Mb (peak 0.00 Mb)
--- Starting Cplex

Version identifier: 22.1.1.0 | 2022-11-27 | 9160aff4d
CPXPARAM_Advance                                 0
CPXPARAM_Simplex_Display                         2
CPXPARAM_MIP_Display                             4
CPXPARAM_MIP_Pool_Capacity                       0
CPXPARAM_MIP_Tolerances_AbsMIPGap                0
Generic callback                                 0x50
Found incumbent of value 0.000000 after 0.00 sec. (0.00 ticks)
Tried aggregator 1 time.
MIP Presolve eliminated 2 rows and 2 columns.
Reduced MIP has 9 rows, 12 columns, and 29 nonzeros.
Reduced MIP has 3 binaries, 0 generals, 0 SOSs, and 0 indicators.
Presolve time = 0.00 sec. (0.02 ticks)
Probing fixed 0 vars, tightened 2 bounds.
Probing time = 0.00 sec. (0.00 ticks)
Tried aggregator 1 time.
Detecting symmetries...
Reduced MIP has 9 rows, 12 columns, and 29 nonzeros.
Reduced MIP has 3 binaries, 0 generals, 0 SOSs, and 0 indicators.
Presolve time = 0.00 sec. (0.02 ticks)
Probing time = 0.00 sec. (0.00 ticks)
Clique table members: 1.
MIP emphasis: balance optimality and feasibility.
MIP search method: dynamic search.
Parallel mode: deterministic, using up to 12 threads.
Parallel mode: deterministic, using up to 2 threads for parallel tasks at root LP.
Tried aggregator 1 time.
No LP presolve or aggregator reductions.
Presolve time = 0.00 sec. (0.00 ticks)
Initializing dual steep norms . . .

Iteration      Dual Objective            In Variable           Out Variable
     1          394144.000000             storage(1)    reservoir_bypass(2)
     2          344144.000000       reservoir_use(2)    reservoir_bypass(1)
     3          340504.000000    reservoir_bypass(1)    pump_limit(1) slack
     4          337592.000000            pump_use(2)    pump_limit(2) slack
     5          331040.000000            pump_use(1)             storage(1)
     6          322468.571429                I(high)reservoir_capacit slack
     7          315195.844156                I(pump) pump_capacity(2) slack
Root relaxation solution time = 0.00 sec. (0.01 ticks)

        Nodes                                         Cuts/
   Node  Left     Objective  IInf  Best Integer    Best Bound    ItCnt     Gap

*     0+    0                            0.0000   394144.0000              --- 
Found incumbent of value 0.000000 after 0.02 sec. (0.07 ticks)
*     0+    0                       190000.0000   394144.0000           107.44%
Found incumbent of value 190000.000000 after 0.02 sec. (0.07 ticks)
      0     0   315195.8442     2   190000.0000   315195.8442        7   65.89%
*     0+    0                       313040.0000   315195.8442             0.69%
Found incumbent of value 313040.000000 after 0.02 sec. (0.08 ticks)
      0     0        cutoff         313040.0000                      9     --- 
Elapsed time = 0.03 sec. (0.11 ticks, tree = 0.01 MB)

Root node processing (before b&c):
  Real time             =    0.03 sec. (0.11 ticks)
Parallel b&c, 12 threads:
  Real time             =    0.00 sec. (0.00 ticks)
  Sync time (average)   =    0.00 sec.
  Wait time (average)   =    0.00 sec.
                          ------------
Total (root+branch&cut) =    0.03 sec. (0.11 ticks)

--- MIP status (101): integer optimal solution.
--- Cplex Time: 0.03sec (det. 0.11 ticks)

--- Returning a primal only solution to GAMS (marginals all set to NA).
--- Fixing integer variables and solving final LP...

Version identifier: 22.1.1.0 | 2022-11-27 | 9160aff4d
CPXPARAM_Advance                                 2
CPXPARAM_Simplex_Display                         2
CPXPARAM_MIP_Display                             4
CPXPARAM_MIP_Pool_Capacity                       0
CPXPARAM_MIP_Tolerances_AbsMIPGap                0
Tried aggregator 1 time.
LP Presolve eliminated 3 rows and 4 columns.
Reduced LP has 8 rows, 10 columns, and 28 nonzeros.
Presolve time = 0.00 sec. (0.01 ticks)
Initializing dual steep norms . . .

Iteration      Dual Objective            In Variable           Out Variable
     1  I            0.000000       reservoir_use(2)reservoir_limit(2 slack
     2          315952.000000            pump_use(1)    pump_limit(1) slack
     3          313040.000000            pump_use(2)    pump_limit(2) slack

--- Fixed MIP status (1): optimal.
--- Cplex Time: 0.02sec (det. 0.02 ticks)


Proven optimal solution
MIP Solution:       313040.000000    (9 iterations, 0 nodes)
Final Solve:        313040.000000    (3 iterations)

Best possible:      313040.000000
Absolute gap:            0.000000
Relative gap:            0.000000

--- Reading solution for model reservoir_management
*** Status: Normal completion
--- Job homework 6 MIP (1).gms Stop 10/24/24 15:57:22 elapsed 0:00:00.180
